============================[ Problem Statistics ]=============================|                                                                             ||  Number of variables:          4242                                         ||  Number of clauses:           10381                                         ||  Parse time:                   0.77 s                                       ||                                                                             |============================[ Search Statistics ]==============================| Conflicts |          ORIGINAL         |          LEARNT          | Progress ||           |    Vars  Clauses Literals |    Limit  Clauses Lit/Cl |          |===============================================================================|       100 |    1591     6586  1225727 |     2414      100     53 | 62.501 % ||       250 |    1591     6586  1225727 |     2656      250     75 | 62.495 % |===============================================================================restarts              : 4conflicts             : 415            (355 /sec)decisions             : 775            (0.00 % random) (663 /sec)propagations          : 13675          (11698 /sec)conflict literals     : 34667          (94.52 % deleted)CPU time              : 1.169 sSATISFIABLE